(set-logic QF_NRA)
(set-info :source |Benchmarks generated from hycomp (https://es-static.fbk.eu/tools/hycomp/). BMC instances of non-linear hybrid automata taken from: Alessandro Cimatti, Sergio Mover, Stefano Tonetta, A quantifier-free SMT encoding of non-linear hybrid automata, FMCAD 2012 and Alessandro Cimatti, Sergio Mover, Stefano Tonetta, Quantier-free encoding of invariants for Hybrid Systems, Formal Methods in System Design. This instance solves a BMC problem of depth 0 and uses the encoding obtained with quantifier elimination using redlog encoding. Contacts: Sergio Mover (mover@fbk.eu), Stefano Tonetta (tonettas@fbk.eu), Alessandro Cimatti (cimatti@fbk.eu).|)
(set-info :smt-lib-version 2.0)
(set-info :category "industrial")
(set-info :status unsat)
;; MathSAT API call trace
;; generated on Mon Mar 19 10:42:16 2012
(declare-fun train1.EVENT.1__AT0 () Bool)
(declare-fun train2.EVENT.0__AT0 () Bool)
(declare-fun train2.mode.0__AT0 () Bool)
(declare-fun train1.front_position__AT0 () Real)
(declare-fun train1.speed__AT0 () Real)
(declare-fun train2.speed__AT0 () Real)
(declare-fun train2.EVENT.1__AT0 () Bool)
(declare-fun train2.acceleration__AT0 () Real)
(declare-fun train1.timer__AT0 () Real)
(declare-fun train1.mode.0__AT0 () Bool)
(declare-fun train1.EVENT.0__AT0 () Bool)
(declare-fun train1.event_is_timed__AT0 () Bool)
(declare-fun train2.time__AT0 () Real)
(declare-fun train2.delta__AT0 () Real)
(declare-fun train2.timer__AT0 () Real)
(declare-fun train1.time__AT0 () Real)
(declare-fun train1.delta__AT0 () Real)
(declare-fun train2.front_position__AT0 () Real)
(declare-fun train2.event_is_timed__AT0 () Bool)
(declare-fun train1.acceleration__AT0 () Real)
(assert (let ((.def_266 (* train2.acceleration__AT0 train2.delta__AT0)))
(let ((.def_308 (+ train2.speed__AT0 .def_266)))
(let ((.def_356 (= .def_308 0.0 )))
(let ((.def_357 (not .def_356)))
(let ((.def_324 (* train2.speed__AT0 train2.acceleration__AT0)))
(let ((.def_314 (* train2.acceleration__AT0 train2.acceleration__AT0)))
(let ((.def_315 (* train2.delta__AT0 .def_314)))
(let ((.def_325 (+ .def_315 .def_324)))
(let ((.def_326 (<= .def_325 0.0 )))
(let ((.def_358 (and .def_326 .def_357)))
(let ((.def_331 (<= 0.0 .def_324)))
(let ((.def_94 (<= train2.acceleration__AT0 0.0 )))
(let ((.def_355 (or .def_94 .def_331)))
(let ((.def_359 (or .def_355 .def_358)))
(let ((.def_345 (<= 0.0 .def_308)))
(let ((.def_244 (<= 0.0 train2.delta__AT0)))
(let ((.def_245 (not .def_244)))
(let ((.def_353 (or .def_245 .def_345)))
(let ((.def_346 (not .def_345)))
(let ((.def_268 (* 2.0 train2.speed__AT0)))
(let ((.def_269 (* train2.delta__AT0 .def_268)))
(let ((.def_267 (* train2.delta__AT0 .def_266)))
(let ((.def_270 (+ .def_267 .def_269)))
(let ((.def_271 (* 2.0 train2.front_position__AT0)))
(let ((.def_273 (+ .def_271 .def_270)))
(let ((.def_311 (= .def_273 0.0 )))
(let ((.def_312 (not .def_311)))
(let ((.def_347 (or .def_312 .def_346)))
(let ((.def_299 (* 2.0 train2.acceleration__AT0)))
(let ((.def_318 (* train2.speed__AT0 .def_299)))
(let ((.def_319 (* train2.delta__AT0 .def_318)))
(let ((.def_316 (* train2.delta__AT0 .def_315)))
(let ((.def_321 (+ .def_316 .def_319)))
(let ((.def_300 (* train2.front_position__AT0 .def_299)))
(let ((.def_322 (+ .def_300 .def_321)))
(let ((.def_341 (<= 0.0 .def_322)))
(let ((.def_342 (and .def_326 .def_341)))
(let ((.def_306 (not .def_94)))
(let ((.def_343 (or .def_306 .def_342)))
(let ((.def_323 (<= .def_322 0.0 )))
(let ((.def_327 (or .def_323 .def_326)))
(let ((.def_344 (and .def_327 .def_343)))
(let ((.def_348 (and .def_344 .def_347)))
(let ((.def_279 (* train2.speed__AT0 train2.speed__AT0)))
(let ((.def_338 (= .def_279 .def_300)))
(let ((.def_339 (and .def_306 .def_338)))
(let ((.def_253 (<= 0.0 train2.acceleration__AT0)))
(let ((.def_335 (not .def_253)))
(let ((.def_277 (* train2.front_position__AT0 train2.acceleration__AT0)))
(let ((.def_334 (<= .def_277 0.0 )))
(let ((.def_336 (and .def_334 .def_335)))
(let ((.def_330 (<= 0.0 .def_277)))
(let ((.def_332 (and .def_330 .def_331)))
(let ((.def_337 (or .def_332 .def_336)))
(let ((.def_340 (or .def_337 .def_339)))
(let ((.def_349 (or .def_340 .def_348)))
(let ((.def_309 (<= .def_308 0.0 )))
(let ((.def_310 (not .def_309)))
(let ((.def_313 (or .def_310 .def_312)))
(let ((.def_328 (and .def_313 .def_327)))
(let ((.def_304 (<= .def_279 .def_300)))
(let ((.def_305 (not .def_304)))
(let ((.def_307 (or .def_305 .def_306)))
(let ((.def_329 (or .def_307 .def_328)))
(let ((.def_333 (or .def_329 .def_332)))
(let ((.def_350 (and .def_333 .def_349)))
(let ((.def_301 (<= .def_300 .def_279)))
(let ((.def_302 (not .def_301)))
(let ((.def_282 (= train2.acceleration__AT0 0.0 )))
(let ((.def_303 (or .def_282 .def_302)))
(let ((.def_351 (or .def_303 .def_350)))
(let ((.def_292 (* train2.speed__AT0 train2.delta__AT0)))
(let ((.def_293 (+ train2.front_position__AT0 .def_292)))
(let ((.def_294 (= .def_293 0.0 )))
(let ((.def_295 (not .def_294)))
(let ((.def_289 (* train2.delta__AT0 .def_279)))
(let ((.def_285 (* train2.front_position__AT0 train2.speed__AT0)))
(let ((.def_290 (+ .def_285 .def_289)))
(let ((.def_291 (<= .def_290 0.0 )))
(let ((.def_296 (and .def_291 .def_295)))
(let ((.def_286 (<= 0.0 .def_285)))
(let ((.def_283 (not .def_282)))
(let ((.def_278 (* train2.speed__AT0 .def_277)))
(let ((.def_280 (* train2.speed__AT0 .def_279)))
(let ((.def_281 (<= .def_280 .def_278)))
(let ((.def_284 (or .def_281 .def_283)))
(let ((.def_287 (or .def_284 .def_286)))
(let ((.def_40 (= train2.speed__AT0 0.0 )))
(let ((.def_288 (or .def_40 .def_287)))
(let ((.def_297 (or .def_288 .def_296)))
(let ((.def_274 (<= 0.0 .def_273)))
(let ((.def_275 (or .def_245 .def_274)))
(let ((.def_237 (* 5.0 train2.acceleration__AT0)))
(let ((.def_239 (* .def_237 train2.delta__AT0)))
(let ((.def_240 (* 5.0 train2.speed__AT0)))
(let ((.def_242 (+ .def_240 .def_239)))
(let ((.def_261 (= .def_242 417.0 )))
(let ((.def_262 (not .def_261)))
(let ((.def_255 (* train2.acceleration__AT0 .def_237)))
(let ((.def_256 (* train2.delta__AT0 .def_255)))
(let ((.def_257 (* (- 1.0) .def_256)))
(let ((.def_247 (* train2.speed__AT0 .def_237)))
(let ((.def_248 (* (- 1.0) .def_247)))
(let ((.def_258 (+ .def_248 .def_257)))
(let ((.def_249 (* 417.0 train2.acceleration__AT0)))
(let ((.def_259 (+ .def_249 .def_258)))
(let ((.def_260 (<= 0.0 .def_259)))
(let ((.def_263 (and .def_260 .def_262)))
(let ((.def_251 (+ .def_249 .def_248)))
(let ((.def_252 (<= .def_251 0.0 )))
(let ((.def_254 (or .def_252 .def_253)))
(let ((.def_264 (or .def_254 .def_263)))
(let ((.def_243 (<= .def_242 417.0 )))
(let ((.def_246 (or .def_243 .def_245)))
(let ((.def_265 (and .def_246 .def_264)))
(let ((.def_276 (and .def_265 .def_275)))
(let ((.def_298 (and .def_276 .def_297)))
(let ((.def_352 (and .def_298 .def_351)))
(let ((.def_354 (and .def_352 .def_353)))
(let ((.def_360 (and .def_354 .def_359)))
(let ((.def_233 (not train2.EVENT.1__AT0)))
(let ((.def_235 (and .def_233 train2.EVENT.0__AT0)))
(let ((.def_236 (not .def_235)))
(let ((.def_361 (or .def_236 .def_360)))
(let ((.def_135 (* train1.acceleration__AT0 train1.delta__AT0)))
(let ((.def_178 (+ train1.speed__AT0 .def_135)))
(let ((.def_226 (= .def_178 0.0 )))
(let ((.def_227 (not .def_226)))
(let ((.def_194 (* train1.speed__AT0 train1.acceleration__AT0)))
(let ((.def_184 (* train1.acceleration__AT0 train1.acceleration__AT0)))
(let ((.def_185 (* train1.delta__AT0 .def_184)))
(let ((.def_195 (+ .def_185 .def_194)))
(let ((.def_196 (<= .def_195 0.0 )))
(let ((.def_228 (and .def_196 .def_227)))
(let ((.def_201 (<= 0.0 .def_194)))
(let ((.def_73 (<= train1.acceleration__AT0 0.0 )))
(let ((.def_225 (or .def_73 .def_201)))
(let ((.def_229 (or .def_225 .def_228)))
(let ((.def_215 (<= 0.0 .def_178)))
(let ((.def_113 (<= 0.0 train1.delta__AT0)))
(let ((.def_114 (not .def_113)))
(let ((.def_223 (or .def_114 .def_215)))
(let ((.def_216 (not .def_215)))
(let ((.def_138 (* 2.0 train1.speed__AT0)))
(let ((.def_139 (* train1.delta__AT0 .def_138)))
(let ((.def_136 (* train1.delta__AT0 .def_135)))
(let ((.def_140 (+ .def_136 .def_139)))
(let ((.def_141 (* 2.0 train1.front_position__AT0)))
(let ((.def_143 (+ .def_141 .def_140)))
(let ((.def_181 (= .def_143 0.0 )))
(let ((.def_182 (not .def_181)))
(let ((.def_217 (or .def_182 .def_216)))
(let ((.def_169 (* 2.0 train1.acceleration__AT0)))
(let ((.def_188 (* train1.speed__AT0 .def_169)))
(let ((.def_189 (* train1.delta__AT0 .def_188)))
(let ((.def_186 (* train1.delta__AT0 .def_185)))
(let ((.def_191 (+ .def_186 .def_189)))
(let ((.def_170 (* train1.front_position__AT0 .def_169)))
(let ((.def_192 (+ .def_170 .def_191)))
(let ((.def_211 (<= 0.0 .def_192)))
(let ((.def_212 (and .def_196 .def_211)))
(let ((.def_176 (not .def_73)))
(let ((.def_213 (or .def_176 .def_212)))
(let ((.def_193 (<= .def_192 0.0 )))
(let ((.def_197 (or .def_193 .def_196)))
(let ((.def_214 (and .def_197 .def_213)))
(let ((.def_218 (and .def_214 .def_217)))
(let ((.def_149 (* train1.speed__AT0 train1.speed__AT0)))
(let ((.def_208 (= .def_149 .def_170)))
(let ((.def_209 (and .def_176 .def_208)))
(let ((.def_122 (<= 0.0 train1.acceleration__AT0)))
(let ((.def_205 (not .def_122)))
(let ((.def_147 (* train1.front_position__AT0 train1.acceleration__AT0)))
(let ((.def_204 (<= .def_147 0.0 )))
(let ((.def_206 (and .def_204 .def_205)))
(let ((.def_200 (<= 0.0 .def_147)))
(let ((.def_202 (and .def_200 .def_201)))
(let ((.def_207 (or .def_202 .def_206)))
(let ((.def_210 (or .def_207 .def_209)))
(let ((.def_219 (or .def_210 .def_218)))
(let ((.def_179 (<= .def_178 0.0 )))
(let ((.def_180 (not .def_179)))
(let ((.def_183 (or .def_180 .def_182)))
(let ((.def_198 (and .def_183 .def_197)))
(let ((.def_174 (<= .def_149 .def_170)))
(let ((.def_175 (not .def_174)))
(let ((.def_177 (or .def_175 .def_176)))
(let ((.def_199 (or .def_177 .def_198)))
(let ((.def_203 (or .def_199 .def_202)))
(let ((.def_220 (and .def_203 .def_219)))
(let ((.def_171 (<= .def_170 .def_149)))
(let ((.def_172 (not .def_171)))
(let ((.def_152 (= train1.acceleration__AT0 0.0 )))
(let ((.def_173 (or .def_152 .def_172)))
(let ((.def_221 (or .def_173 .def_220)))
(let ((.def_162 (* train1.speed__AT0 train1.delta__AT0)))
(let ((.def_163 (+ train1.front_position__AT0 .def_162)))
(let ((.def_164 (= .def_163 0.0 )))
(let ((.def_165 (not .def_164)))
(let ((.def_159 (* train1.delta__AT0 .def_149)))
(let ((.def_155 (* train1.front_position__AT0 train1.speed__AT0)))
(let ((.def_160 (+ .def_155 .def_159)))
(let ((.def_161 (<= .def_160 0.0 )))
(let ((.def_166 (and .def_161 .def_165)))
(let ((.def_156 (<= 0.0 .def_155)))
(let ((.def_153 (not .def_152)))
(let ((.def_148 (* train1.speed__AT0 .def_147)))
(let ((.def_150 (* train1.speed__AT0 .def_149)))
(let ((.def_151 (<= .def_150 .def_148)))
(let ((.def_154 (or .def_151 .def_153)))
(let ((.def_157 (or .def_154 .def_156)))
(let ((.def_23 (= train1.speed__AT0 0.0 )))
(let ((.def_158 (or .def_23 .def_157)))
(let ((.def_167 (or .def_158 .def_166)))
(let ((.def_144 (<= 0.0 .def_143)))
(let ((.def_145 (or .def_114 .def_144)))
(let ((.def_106 (* 5.0 train1.acceleration__AT0)))
(let ((.def_108 (* .def_106 train1.delta__AT0)))
(let ((.def_109 (* 5.0 train1.speed__AT0)))
(let ((.def_111 (+ .def_109 .def_108)))
(let ((.def_130 (= .def_111 417.0 )))
(let ((.def_131 (not .def_130)))
(let ((.def_124 (* train1.acceleration__AT0 .def_106)))
(let ((.def_125 (* train1.delta__AT0 .def_124)))
(let ((.def_126 (* (- 1.0) .def_125)))
(let ((.def_116 (* train1.speed__AT0 .def_106)))
(let ((.def_117 (* (- 1.0) .def_116)))
(let ((.def_127 (+ .def_117 .def_126)))
(let ((.def_118 (* 417.0 train1.acceleration__AT0)))
(let ((.def_128 (+ .def_118 .def_127)))
(let ((.def_129 (<= 0.0 .def_128)))
(let ((.def_132 (and .def_129 .def_131)))
(let ((.def_120 (+ .def_118 .def_117)))
(let ((.def_121 (<= .def_120 0.0 )))
(let ((.def_123 (or .def_121 .def_122)))
(let ((.def_133 (or .def_123 .def_132)))
(let ((.def_112 (<= .def_111 417.0 )))
(let ((.def_115 (or .def_112 .def_114)))
(let ((.def_134 (and .def_115 .def_133)))
(let ((.def_146 (and .def_134 .def_145)))
(let ((.def_168 (and .def_146 .def_167)))
(let ((.def_222 (and .def_168 .def_221)))
(let ((.def_224 (and .def_222 .def_223)))
(let ((.def_230 (and .def_224 .def_229)))
(let ((.def_102 (not train1.EVENT.1__AT0)))
(let ((.def_104 (and .def_102 train1.EVENT.0__AT0)))
(let ((.def_105 (not .def_104)))
(let ((.def_231 (or .def_105 .def_230)))
(let ((.def_362 (and .def_231 .def_361)))
(let ((.def_93 (<= (- (/ 7 5)) train2.acceleration__AT0)))
(let ((.def_95 (and .def_93 .def_94)))
(let ((.def_46 (not train2.mode.0__AT0)))
(let ((.def_96 (or .def_46 .def_95)))
(let ((.def_90 (<= train2.acceleration__AT0 (/ 7 10))))
(let ((.def_89 (<= (- (/ 7 10)) train2.acceleration__AT0)))
(let ((.def_91 (and .def_89 .def_90)))
(let ((.def_92 (or train2.mode.0__AT0 .def_91)))
(let ((.def_97 (and .def_92 .def_96)))
(let ((.def_85 (<= train2.timer__AT0 8.0 )))
(let ((.def_84 (<= 0.0 train2.timer__AT0)))
(let ((.def_86 (and .def_84 .def_85)))
(let ((.def_81 (<= train2.speed__AT0 (/ 417 5))))
(let ((.def_80 (<= 0.0 train2.speed__AT0)))
(let ((.def_82 (and .def_80 .def_81)))
(let ((.def_78 (<= 0.0 train2.front_position__AT0)))
(let ((.def_72 (<= (- (/ 7 5)) train1.acceleration__AT0)))
(let ((.def_74 (and .def_72 .def_73)))
(let ((.def_29 (not train1.mode.0__AT0)))
(let ((.def_75 (or .def_29 .def_74)))
(let ((.def_67 (<= train1.acceleration__AT0 (/ 7 10))))
(let ((.def_66 (<= (- (/ 7 10)) train1.acceleration__AT0)))
(let ((.def_68 (and .def_66 .def_67)))
(let ((.def_69 (or train1.mode.0__AT0 .def_68)))
(let ((.def_76 (and .def_69 .def_75)))
(let ((.def_58 (<= train1.timer__AT0 8.0 )))
(let ((.def_56 (<= 0.0 train1.timer__AT0)))
(let ((.def_59 (and .def_56 .def_58)))
(let ((.def_53 (<= train1.speed__AT0 (/ 417 5))))
(let ((.def_49 (<= 0.0 train1.speed__AT0)))
(let ((.def_54 (and .def_49 .def_53)))
(let ((.def_48 (<= 0.0 train1.front_position__AT0)))
(let ((.def_55 (and .def_48 .def_54)))
(let ((.def_60 (and .def_55 .def_59)))
(let ((.def_77 (and .def_60 .def_76)))
(let ((.def_79 (and .def_77 .def_78)))
(let ((.def_83 (and .def_79 .def_82)))
(let ((.def_87 (and .def_83 .def_86)))
(let ((.def_98 (and .def_87 .def_97)))
(let ((.def_43 (= train2.timer__AT0 0.0 )))
(let ((.def_37 (= train2.front_position__AT0 400.0 )))
(let ((.def_34 (= train2.time__AT0 0.0 )))
(let ((.def_26 (= train1.timer__AT0 0.0 )))
(let ((.def_20 (= train1.front_position__AT0 0.0 )))
(let ((.def_17 (= train1.time__AT0 0.0 )))
(let ((.def_19 (and .def_17 train1.event_is_timed__AT0)))
(let ((.def_21 (and .def_19 .def_20)))
(let ((.def_24 (and .def_21 .def_23)))
(let ((.def_27 (and .def_24 .def_26)))
(let ((.def_30 (and .def_27 .def_29)))
(let ((.def_32 (and .def_30 train2.event_is_timed__AT0)))
(let ((.def_35 (and .def_32 .def_34)))
(let ((.def_38 (and .def_35 .def_37)))
(let ((.def_41 (and .def_38 .def_40)))
(let ((.def_44 (and .def_41 .def_43)))
(let ((.def_47 (and .def_44 .def_46)))
(let ((.def_99 (and .def_47 .def_98)))
(let ((.def_11 (* (- 1.0) train2.front_position__AT0)))
(let ((.def_12 (+ train1.front_position__AT0 .def_11)))
(let ((.def_13 (<= .def_12 (- 200.0) )))
(let ((.def_14 (not .def_13)))
(let ((.def_100 (and .def_14 .def_99)))
(let ((.def_363 (and .def_100 .def_362)))
.def_363)))))))))))))))))))))))))))))))))))))))))))))))))))))))))))))))))))))))))))))))))))))))))))))))))))))))))))))))))))))))))))))))))))))))))))))))))))))))))))))))))))))))))))))))))))))))))))))))))))))))))))))))))))))))))))))))))))))))))))))))))))))))))))))))))))))))))))))))))))))))))))))))))))))))))))))))))))))))))
(check-sat)
(exit)
